e = {evnt1,evnt2,evnt3,evnt4,evnt5,evnt6,evnt7,evnt8,evnt9,evnt10};
%lenE =10;
InitialM =[|
    false,true,false|
    false,true,false|
    false,true,false|
    false,true,false|
    false,true,false|
    false,true,false|
    false,true,false|
    false,true,false|
    false,true,false|
    false,true,false|
|];
Act ={CphToLhr,CphToMad,MadToLhr,LhrToMia,LhrToJfk,MiaToClo,MiaToPty,PtyToClo,JfkToBog,BogToClo};
%lenAct =10;
numConditions =7;
conditions = [|
    evnt1,evnt2|
    evnt1,evnt2|
    evnt1,evnt2|
    evnt1,evnt2|
    evnt1,evnt2|
    evnt1,evnt2|
    evnt1,evnt2|
|];
numResponses =1;
responses =[|evnt1,evnt2|];
numInclusions =1;
inclusions =[|evnt1,evnt2|];
numExclusions =1;
exclusions =[|evnt1,evnt2|];
l = [CphToLhr,CphToMad,MadToLhr,LhrToMia,LhrToJfk,MiaToClo,MiaToPty,PtyToClo,JfkToBog,BogToClo];
K=10